# Node Net
2100   1
1681   1
 18   1
1050   1
3150   2
4060   2
 48   2
350   2
4551   3
3291   3
4852   3
4270   4
 44   4
4880   4
  2   5
 52   5
1891   5
 57   6
  4   6
 68   6
4892   7
4834   7
 28   7
630   8
  9   8
 41   9
560   9
4863  10
4900  10
4340  11
4840  11
 46  12
 19  12
